NAME : portcgen-22-21
COMMENT : portcgen N=22, seed=21
TYPE : TSP
DIMENSION : 22
EDGE_WEIGHT_TYPE : EUC_2D
NODE_COORD_SECTION
1 -144082 105271
2 -143933 203644
3 32811 194911
4 10754 143335
5 62275 -73393
6 -239280 321222
7 142470 -51305
8 -140012 144992
9 -55479 47862
10 148724 269830
11 151160 -449933
12 88877 -66465
13 189189 -529227
14 259596 -147194
15 572182 286688
16 339058 -115738
17 319160 20145
18 -332449 -75961
19 83982 -2311
20 -250311 86291
21 -80037 -68868
22 322476 230492
